(set-logic QF_LIA)
(set-info :ran/ran2.smt2)
(set-info :smt-lib-version 2.0)
(declare-fun x1 () Int)
(declare-fun x2 () Int)
(declare-fun x3 () Int)
(declare-fun x4 () Int)
(declare-fun x5 () Int)
(declare-fun x6 () Int)
(declare-fun x7 () Int)
(declare-fun x8 () Int)
(assert (<= (+ (* 9 x1) (* 6 x2) (* (- 5) x3) (* (- 5) x4) (* 8 x5) (* 3 x6) (* 1 x7) (* 8 x8) ) 8))
(assert (<= (+ (* 4 x1) (* (- 1) x2) (* (- 5) x3) (* 10 x4) (* 4 x5) (* 5 x6) (* 8 x7) (* (- 6) x8) ) (- 13)))
(assert (<= (+ (* 5 x1) (* (- 1) x2) (* 0 x3) (* 5 x4) (* (- 9) x5) (* 6 x6) (* (- 8) x7) (* (- 1) x8) ) 4))
(assert (<= (+ (* (- 3) x1) (* 5 x2) (* (- 8) x3) (* (- 9) x4) (* 4 x5) (* 6 x6) (* (- 4) x7) (* 7 x8) ) (- 37)))
(assert (<= (+ (* 7 x1) (* (- 2) x2) (* (- 1) x3) (* 0 x4) (* 10 x5) (* 6 x6) (* 4 x7) (* 10 x8) ) (- 25)))
(assert (<= (+ (* (- 2) x1) (* 7 x2) (* 1 x3) (* 0 x4) (* 1 x5) (* (- 10) x6) (* 8 x7) (* (- 4) x8) ) (- 26)))
(assert (<= (+ (* 4 x1) (* (- 4) x2) (* (- 3) x3) (* 9 x4) (* 1 x5) (* (- 9) x6) (* 10 x7) (* 2 x8) ) 25))
(assert (<= (+ (* 3 x1) (* 7 x2) (* 0 x3) (* (- 6) x4) (* 1 x5) (* 6 x6) (* 1 x7) (* (- 9) x8) ) (- 28)))
(assert (<= (+ (* (- 6) x1) (* 5 x2) (* 4 x3) (* 1 x4) (* (- 10) x5) (* (- 1) x6) (* (- 9) x7) (* 0 x8) ) 17))
(assert (<= (+ (* 10 x1) (* (- 4) x2) (* (- 7) x3) (* 10 x4) (* 8 x5) (* 0 x6) (* (- 4) x7) (* 6 x8) ) (- 15)))
(assert (<= (+ (* (- 5) x1) (* 3 x2) (* 1 x3) (* 7 x4) (* (- 4) x5) (* (- 5) x6) (* (- 6) x7) (* (- 2) x8) ) 37))
(assert (<= (+ (* 10 x1) (* 7 x2) (* 7 x3) (* 2 x4) (* (- 10) x5) (* (- 1) x6) (* (- 6) x7) (* 1 x8) ) 13))
(assert (<= (+ (* 3 x1) (* 0 x2) (* 8 x3) (* 0 x4) (* 0 x5) (* (- 7) x6) (* 4 x7) (* (- 3) x8) ) 40))
(assert (<= (+ (* (- 9) x1) (* 1 x2) (* 5 x3) (* 10 x4) (* 6 x5) (* (- 5) x6) (* 0 x7) (* 2 x8) ) 23))
(assert (<= (+ (* 5 x1) (* 4 x2) (* 7 x3) (* (- 1) x4) (* 3 x5) (* 3 x6) (* (- 7) x7) (* (- 5) x8) ) 2))
(assert (<= (+ (* 3 x1) (* (- 1) x2) (* (- 9) x3) (* 9 x4) (* 10 x5) (* 0 x6) (* 6 x7) (* (- 1) x8) ) 3))
(assert (<= (+ (* 1 x1) (* 0 x2) (* 0 x3) (* 0 x4) (* 0 x5) (* 0 x6) (* 0 x7) (* 0 x8) ) 50))
(assert (<= (+ (* (- 1) x1) (* 0 x2) (* 0 x3) (* 0 x4) (* 0 x5) (* 0 x6) (* 0 x7) (* 0 x8) ) 50))
(assert (<= (+ (* 0 x1) (* 1 x2) (* 0 x3) (* 0 x4) (* 0 x5) (* 0 x6) (* 0 x7) (* 0 x8) ) 50))
(assert (<= (+ (* 0 x1) (* (- 1) x2) (* 0 x3) (* 0 x4) (* 0 x5) (* 0 x6) (* 0 x7) (* 0 x8) ) 50))
(assert (<= (+ (* 0 x1) (* 0 x2) (* 1 x3) (* 0 x4) (* 0 x5) (* 0 x6) (* 0 x7) (* 0 x8) ) 50))
(assert (<= (+ (* 0 x1) (* 0 x2) (* (- 1) x3) (* 0 x4) (* 0 x5) (* 0 x6) (* 0 x7) (* 0 x8) ) 50))
(assert (<= (+ (* 0 x1) (* 0 x2) (* 0 x3) (* 1 x4) (* 0 x5) (* 0 x6) (* 0 x7) (* 0 x8) ) 50))
(assert (<= (+ (* 0 x1) (* 0 x2) (* 0 x3) (* (- 1) x4) (* 0 x5) (* 0 x6) (* 0 x7) (* 0 x8) ) 50))
(assert (<= (+ (* 0 x1) (* 0 x2) (* 0 x3) (* 0 x4) (* 1 x5) (* 0 x6) (* 0 x7) (* 0 x8) ) 50))
(assert (<= (+ (* 0 x1) (* 0 x2) (* 0 x3) (* 0 x4) (* (- 1) x5) (* 0 x6) (* 0 x7) (* 0 x8) ) 50))
(assert (<= (+ (* 0 x1) (* 0 x2) (* 0 x3) (* 0 x4) (* 0 x5) (* 1 x6) (* 0 x7) (* 0 x8) ) 50))
(assert (<= (+ (* 0 x1) (* 0 x2) (* 0 x3) (* 0 x4) (* 0 x5) (* (- 1) x6) (* 0 x7) (* 0 x8) ) 50))
(assert (<= (+ (* 0 x1) (* 0 x2) (* 0 x3) (* 0 x4) (* 0 x5) (* 0 x6) (* 1 x7) (* 0 x8) ) 50))
(assert (<= (+ (* 0 x1) (* 0 x2) (* 0 x3) (* 0 x4) (* 0 x5) (* 0 x6) (* (- 1) x7) (* 0 x8) ) 50))
(assert (<= (+ (* 0 x1) (* 0 x2) (* 0 x3) (* 0 x4) (* 0 x5) (* 0 x6) (* 0 x7) (* 1 x8) ) 50))
(assert (<= (+ (* 0 x1) (* 0 x2) (* 0 x3) (* 0 x4) (* 0 x5) (* 0 x6) (* 0 x7) (* (- 1) x8) ) 50))
